unsat
( c10
  c14
  c148
  c17
  c2559
  c262
  c2639
  c2662
  c2680
  c2694
  c2700
  c271
  c278
  c294
  c3080
  c310
  c3113
  c312
  c316
  c3530
  c3615
  c3811
  c5098
  c5125
  c5128
  c5139
  c5141
  c5148
  c5369
  c5380
  c5392
  c5479
  c5482
  c5483
  c5484
  c5485
  c5499
  c5838
  c5912
  c6327
  c647
  c658
  c7
  c8
  c9 )
